Welcome to the CBC MILP Solver 
Version: Trunk
Build Date: Apr 16 2020 

Starting solution of the Linear programming relaxation problem using Primal Simplex

Using Python-MIP package version 1.8.1
Machines:  4 Jobs:  4
Order: 
Job  0 : machine 0 ( 10 ) machine 3 ( 1 ) machine 2 ( 6 ) machine 1 ( 7 ) 
Job  1 : machine 0 ( 1 ) machine 3 ( 7 ) machine 1 ( 5 ) machine 2 ( 8 ) 
Job  2 : machine 3 ( 9 ) machine 2 ( 3 ) machine 1 ( 7 ) machine 0 ( 1 ) 
Job  3 : machine 1 ( 7 ) machine 3 ( 3 ) machine 0 ( 9 ) machine 2 ( 10 ) 
K:  44
Job  0 , e: machine  0 ( 0 ) machine  1 ( 17 ) machine  2 ( 11 ) machine  3 ( 10 ) 
Job  1 , e: machine  0 ( 0 ) machine  1 ( 8 ) machine  2 ( 13 ) machine  3 ( 1 ) 
Job  2 , e: machine  0 ( 19 ) machine  1 ( 12 ) machine  2 ( 9 ) machine  3 ( 0 ) 
Job  3 , e: machine  0 ( 10 ) machine  1 ( 0 ) machine  2 ( 19 ) machine  3 ( 7 ) 
Job  0 , f: machine  0 ( 14 ) machine  1 ( 0 ) machine  2 ( 7 ) machine  3 ( 13 ) 
Job  1 , f: machine  0 ( 20 ) machine  1 ( 8 ) machine  2 ( 0 ) machine  3 ( 13 ) 
Job  2 , f: machine  0 ( 0 ) machine  1 ( 1 ) machine  2 ( 8 ) machine  3 ( 11 ) 
Job  3 , f: machine  0 ( 10 ) machine  1 ( 22 ) machine  2 ( 0 ) machine  3 ( 19 ) 
EST and LST:
Job: 0 Machine: 0 EST: 0 LST: 20
Job: 0 Machine: 1 EST: 17 LST: 37
Job: 0 Machine: 2 EST: 11 LST: 31
Job: 0 Machine: 3 EST: 10 LST: 30
Job: 1 Machine: 0 EST: 0 LST: 23
Job: 1 Machine: 1 EST: 8 LST: 31
Job: 1 Machine: 2 EST: 13 LST: 36
Job: 1 Machine: 3 EST: 1 LST: 24
Job: 2 Machine: 0 EST: 19 LST: 43
Job: 2 Machine: 1 EST: 12 LST: 36
Job: 2 Machine: 2 EST: 9 LST: 33
Job: 2 Machine: 3 EST: 0 LST: 24
Job: 3 Machine: 0 EST: 10 LST: 25
Job: 3 Machine: 1 EST: 0 LST: 15
Job: 3 Machine: 2 EST: 19 LST: 34
Job: 3 Machine: 3 EST: 7 LST: 22
Order:
Job: 0 Machine: 0 = 0 
Job: 0 Machine: 1 = 3 
Job: 0 Machine: 2 = 2 
Job: 0 Machine: 3 = 1 
Job: 1 Machine: 0 = 0 
Job: 1 Machine: 1 = 2 
Job: 1 Machine: 2 = 3 
Job: 1 Machine: 3 = 1 
Job: 2 Machine: 0 = 3 
Job: 2 Machine: 1 = 2 
Job: 2 Machine: 2 = 1 
Job: 2 Machine: 3 = 0 
Job: 3 Machine: 0 = 2 
Job: 3 Machine: 1 = 0 
Job: 3 Machine: 2 = 3 
Job: 3 Machine: 3 = 1 
Distances:
Job 0, Machine 0 -> Machine 3: distance 10
Job 0, Machine 0 -> Machine 2: distance 11
Job 0, Machine 0 -> Machine 1: distance 17
Job 0, Machine 3 -> Machine 2: distance 1
Job 0, Machine 3 -> Machine 1: distance 7
Job 0, Machine 2 -> Machine 1: distance 6
Job 1, Machine 0 -> Machine 3: distance 1
Job 1, Machine 0 -> Machine 1: distance 8
Job 1, Machine 0 -> Machine 2: distance 13
Job 1, Machine 3 -> Machine 1: distance 7
Job 1, Machine 3 -> Machine 2: distance 12
Job 1, Machine 1 -> Machine 2: distance 5
Job 2, Machine 3 -> Machine 2: distance 9
Job 2, Machine 3 -> Machine 1: distance 12
Job 2, Machine 3 -> Machine 0: distance 19
Job 2, Machine 2 -> Machine 1: distance 3
Job 2, Machine 2 -> Machine 0: distance 10
Job 2, Machine 1 -> Machine 0: distance 7
Job 3, Machine 1 -> Machine 3: distance 7
Job 3, Machine 1 -> Machine 0: distance 10
Job 3, Machine 1 -> Machine 2: distance 19
Job 3, Machine 3 -> Machine 0: distance 3
Job 3, Machine 3 -> Machine 2: distance 12
Job 3, Machine 0 -> Machine 2: distance 9
McCormic linearization
[(1, 2), (0, 0), (3, 3), (2, 0), (2, 3), (1, 0), (0, 2)]
obj:  0.6000000000000001
solutions:  1
+ x(0,0) + 0.1x(1,0) 
C:  28.999999999999996
x(0,0) = 0.20	 x(0,1) = 19.00	 x(0,2) = 13.00	 x(0,3) = 10.20	 
x(1,0) = 8.00	 x(1,1) = 16.00	 x(1,2) = 21.00	 x(1,3) = 9.00	 
x(2,0) = 20.20	 x(2,1) = 13.20	 x(2,2) = 10.20	 x(2,3) = 1.20	 
x(3,0) = 10.00	 x(3,1) = 0.00	 x(3,2) = 19.00	 x(3,3) = 7.00	 
y(0,1,0) = 0.37	 y(1,0,0) = 0.63	 
y(0,2,0) = 0.48	 y(2,0,0) = 0.52	 
y(0,3,0) = 0.99	 y(3,0,0) = 0.01	 
y(1,2,0) = 0.30	 y(2,1,0) = 0.70	 
y(1,3,0) = 0.96	 y(3,1,0) = 0.04	 
y(2,3,0) = 0.00	 y(3,2,0) = 1.00	 
y(0,1,1) = 0.48	 y(1,0,1) = 0.52	 
y(0,2,1) = 0.05	 y(2,0,1) = 0.95	 
y(0,3,1) = 0.00	 y(3,0,1) = 1.00	 
y(1,2,1) = 0.12	 y(2,1,1) = 0.88	 
y(1,3,1) = 0.38	 y(3,1,1) = 0.62	 
y(2,3,1) = 0.00	 y(3,2,1) = 1.00	 
y(0,1,2) = 0.48	 y(1,0,2) = 0.52	 
y(0,2,2) = 0.44	 y(2,0,2) = 0.56	 
y(0,3,2) = 1.00	 y(3,0,2) = 0.00	 
y(1,2,2) = 0.00	 y(2,1,2) = 1.00	 
y(1,3,2) = 0.26	 y(3,1,2) = 0.74	 
y(2,3,2) = 0.74	 y(3,2,2) = 0.26	 
y(0,1,3) = 0.28	 y(1,0,3) = 0.72	 
y(0,2,3) = 0.00	 y(2,0,3) = 1.00	 
y(0,3,3) = 0.01	 y(3,0,3) = 0.99	 
y(1,2,3) = 0.04	 y(2,1,3) = 0.96	 
y(1,3,3) = 0.04	 y(3,1,3) = 0.96	 
y(2,3,3) = 0.35	 y(3,2,3) = 0.65	 
obj:  1.063157894736842
erro
[(1, 2), (0, 1), (0, 0), (0, 2), (2, 0), (2, 2), (1, 1)]
cliques:  0 mip: 72
C:  29.699716713880658
x(0,0) = 5.70	 x(0,1) = 22.70	 x(0,2) = 16.70	 x(0,3) = 15.70	 
x(1,0) = -0.00	 x(1,1) = 8.00	 x(1,2) = 13.00	 x(1,3) = 1.00	 
x(2,0) = 22.70	 x(2,1) = 15.70	 x(2,2) = 12.70	 x(2,3) = 3.70	 
x(3,0) = 10.09	 x(3,1) = 0.00	 x(3,2) = 19.09	 x(3,3) = 7.08	 
y(0,1,0) = 0.00	 y(1,0,0) = 1.00	 
y(0,2,0) = 0.70	 y(2,0,0) = 0.30	 
y(0,3,0) = 0.39	 y(3,0,0) = 0.61	 
y(1,2,0) = 0.54	 y(2,1,0) = 0.46	 
y(1,3,0) = 0.62	 y(3,1,0) = 0.38	 
y(2,3,0) = 0.00	 y(3,2,0) = 1.00	 
y(0,1,1) = 0.13	 y(1,0,1) = 0.87	 
y(0,2,1) = 0.00	 y(2,0,1) = 1.00	 
y(0,3,1) = 0.00	 y(3,0,1) = 1.00	 
y(1,2,1) = 0.42	 y(2,1,1) = 0.58	 
y(1,3,1) = 0.04	 y(3,1,1) = 0.96	 
y(2,3,1) = 0.00	 y(3,2,1) = 1.00	 
y(0,1,2) = 0.13	 y(1,0,2) = 0.87	 
y(0,2,2) = 0.14	 y(2,0,2) = 0.86	 
y(0,3,2) = 0.71	 y(3,0,2) = 0.29	 
y(1,2,2) = 0.12	 y(2,1,2) = 0.88	 
y(1,3,2) = 0.92	 y(3,1,2) = 0.08	 
y(2,3,2) = 0.85	 y(3,2,2) = 0.15	 
y(0,1,3) = 0.00	 y(1,0,3) = 1.00	 
y(0,2,3) = 0.14	 y(2,0,3) = 0.86	 
y(0,3,3) = 0.26	 y(3,0,3) = 0.74	 
y(1,2,3) = 0.37	 y(2,1,3) = 0.63	 
y(1,3,3) = 0.38	 y(3,1,3) = 0.62	 
y(2,3,3) = 0.26	 y(3,2,3) = 0.74	 
obj:  0.8863244849307029
solutions:  1
+ 0.013698630136986321x(1,3) + 0.12328767123287669x(3,3) 
[(0, 0), (1, 3), (3, 3), (3, 0), (2, 1), (2, 0), (1, 0), (1, 1)]
cliques:  1 mip: 121
C:  30.999999999999574
x(0,0) = 1.00	 x(0,1) = 20.64	 x(0,2) = 13.52	 x(0,3) = 12.52	 
x(1,0) = -0.00	 x(1,1) = 8.00	 x(1,2) = 13.00	 x(1,3) = 1.00	 
x(2,0) = 25.13	 x(2,1) = 18.13	 x(2,2) = 10.00	 x(2,3) = 1.00	 
x(3,0) = 11.48	 x(3,1) = 0.00	 x(3,2) = 21.00	 x(3,3) = 8.00	 
y(0,1,0) = 0.00	 y(1,0,0) = 1.00	 
y(0,2,0) = 1.00	 y(2,0,0) = 0.00	 
y(0,3,0) = 0.97	 y(3,0,0) = 0.03	 
y(1,2,0) = 0.86	 y(2,1,0) = 0.14	 
y(1,3,0) = 1.00	 y(3,1,0) = 0.00	 
y(2,3,0) = 0.00	 y(3,2,0) = 1.00	 
y(0,1,1) = 0.00	 y(1,0,1) = 1.00	 
y(0,2,1) = 0.17	 y(2,0,1) = 0.83	 
y(0,3,1) = 0.00	 y(3,0,1) = 1.00	 
y(1,2,1) = 0.78	 y(2,1,1) = 0.22	 
y(1,3,1) = 0.00	 y(3,1,1) = 1.00	 
y(2,3,1) = 0.00	 y(3,2,1) = 1.00	 
y(0,1,2) = 0.72	 y(1,0,2) = 0.28	 
y(0,2,2) = 0.66	 y(2,0,2) = 0.34	 
y(0,3,2) = 1.00	 y(3,0,2) = 0.00	 
y(1,2,2) = 0.00	 y(2,1,2) = 1.00	 
y(1,3,2) = 1.00	 y(3,1,2) = -0.00	 
y(2,3,2) = 0.64	 y(3,2,2) = 0.36	 
y(0,1,3) = 0.00	 y(1,0,3) = 1.00	 
y(0,2,3) = 0.12	 y(2,0,3) = 0.88	 
y(0,3,3) = 0.08	 y(3,0,3) = 0.92	 
y(1,2,3) = 0.28	 y(2,1,3) = 0.72	 
y(1,3,3) = 0.90	 y(3,1,3) = 0.10	 
y(2,3,3) = 0.40	 y(3,2,3) = 0.60	 
obj:  0.22222222222136911
solutions:  1
+ 0.11111111111111112x(1,3) + 0.11111111111111112x(2,3) 
[(3, 2), (1, 3), (3, 3), (2, 3), (2, 2), (0, 2)]
cliques:  1 mip: 71
C:  31.040131886107858
x(0,0) = 1.00	 x(0,1) = 21.16	 x(0,2) = 12.00	 x(0,3) = 11.00	 
x(1,0) = -0.00	 x(1,1) = 8.00	 x(1,2) = 13.00	 x(1,3) = 1.00	 
x(2,0) = 30.04	 x(2,1) = 23.04	 x(2,2) = 20.04	 x(2,3) = 8.00	 
x(3,0) = 11.89	 x(3,1) = 0.00	 x(3,2) = 20.89	 x(3,3) = 8.89	 
y(0,1,0) = 0.00	 y(1,0,0) = 1.00	 
y(0,2,0) = 1.00	 y(2,0,0) = 0.00	 
y(0,3,0) = 1.00	 y(3,0,0) = 0.00	 
y(1,2,0) = 0.88	 y(2,1,0) = 0.12	 
y(1,3,0) = 1.00	 y(3,1,0) = 0.00	 
y(2,3,0) = 0.00	 y(3,2,0) = 1.00	 
y(0,1,1) = 0.00	 y(1,0,1) = 1.00	 
y(0,2,1) = 0.34	 y(2,0,1) = 0.66	 
y(0,3,1) = 0.00	 y(3,0,1) = 1.00	 
y(1,2,1) = 0.81	 y(2,1,1) = 0.19	 
y(1,3,1) = 0.00	 y(3,1,1) = 1.00	 
y(2,3,1) = 0.00	 y(3,2,1) = 1.00	 
y(0,1,2) = 0.79	 y(1,0,2) = 0.21	 
y(0,2,2) = 1.00	 y(2,0,2) = 0.00	 
y(0,3,2) = 1.00	 y(3,0,2) = -0.00	 
y(1,2,2) = 0.72	 y(2,1,2) = 0.28	 
y(1,3,2) = 0.98	 y(3,1,2) = 0.02	 
y(2,3,2) = 0.87	 y(3,2,2) = 0.13	 
y(0,1,3) = 0.00	 y(1,0,3) = 1.00	 
y(0,2,3) = 0.61	 y(2,0,3) = 0.39	 
y(0,3,3) = 0.06	 y(3,0,3) = 0.94	 
y(1,2,3) = 0.50	 y(2,1,3) = 0.50	 
y(1,3,3) = 0.98	 y(3,1,3) = 0.02	 
y(2,3,3) = 0.69	 y(3,2,3) = 0.31	 
obj:  0.781494165675869
solutions:  1
+ 0.062295081967213124x(1,3) + 0.019672131147540996x(3,3) + 0.05901639344262296x(2,3) + 0.006557377049180315x(0,3) 
[(0, 1), (1, 3), (3, 3), (2, 1), (2, 3), (0, 3)]
cliques:  1 mip: 85
C:  32.0
x(0,0) = 1.00	 x(0,1) = 23.95	 x(0,2) = 13.60	 x(0,3) = 12.60	 
x(1,0) = 0.00	 x(1,1) = 12.60	 x(1,2) = 17.60	 x(1,3) = 5.60	 
x(2,0) = 31.00	 x(2,1) = 24.00	 x(2,2) = 20.77	 x(2,3) = 10.68	 
x(3,0) = 11.31	 x(3,1) = 0.00	 x(3,2) = 20.31	 x(3,3) = 8.31	 
y(0,1,0) = 0.00	 y(1,0,0) = 1.00	 
y(0,2,0) = 1.00	 y(2,0,0) = 0.00	 
y(0,3,0) = 0.89	 y(3,0,0) = 0.11	 
y(1,2,0) = 0.78	 y(2,1,0) = 0.22	 
y(1,3,0) = 1.00	 y(3,1,0) = 0.00	 
y(2,3,0) = 0.00	 y(3,2,0) = 1.00	 
y(0,1,1) = 0.00	 y(1,0,1) = 1.00	 
y(0,2,1) = 0.31	 y(2,0,1) = 0.69	 
y(0,3,1) = 0.00	 y(3,0,1) = 1.00	 
y(1,2,1) = 0.64	 y(2,1,1) = 0.36	 
y(1,3,1) = 0.20	 y(3,1,1) = 0.80	 
y(2,3,1) = 0.00	 y(3,2,1) = 1.00	 
y(0,1,2) = 0.70	 y(1,0,2) = 0.30	 
y(0,2,2) = 1.00	 y(2,0,2) = 0.00	 
y(0,3,2) = 1.00	 y(3,0,2) = 0.00	 
y(1,2,2) = 0.58	 y(2,1,2) = 0.42	 
y(1,3,2) = 0.79	 y(3,1,2) = 0.21	 
y(2,3,2) = 0.80	 y(3,2,2) = 0.20	 
y(0,1,3) = 0.00	 y(1,0,3) = 1.00	 
y(0,2,3) = 0.77	 y(2,0,3) = 0.23	 
y(0,3,3) = 0.00	 y(3,0,3) = 1.00	 
y(1,2,3) = 0.44	 y(2,1,3) = 0.56	 
y(1,3,3) = 0.44	 y(3,1,3) = 0.56	 
y(2,3,3) = 0.37	 y(3,2,3) = 0.63	 
obj:  1.056477602444019
erro
[(1, 2), (1, 3), (3, 3), (2, 3), (2, 2)]
cliques:  0 mip: 80
C:  31.999999999999492
x(0,0) = 1.00	 x(0,1) = 25.00	 x(0,2) = 12.00	 x(0,3) = 11.00	 
x(1,0) = 0.00	 x(1,1) = 12.94	 x(1,2) = 19.12	 x(1,3) = 5.94	 
x(2,0) = 31.00	 x(2,1) = 24.00	 x(2,2) = 18.27	 x(2,3) = 9.27	 
x(3,0) = 10.45	 x(3,1) = 0.00	 x(3,2) = 19.45	 x(3,3) = 7.45	 
y(0,1,0) = 0.00	 y(1,0,0) = 1.00	 
y(0,2,0) = 1.00	 y(2,0,0) = 0.00	 
y(0,3,0) = 0.83	 y(3,0,0) = 0.17	 
y(1,2,0) = 0.81	 y(2,1,0) = 0.19	 
y(1,3,0) = 1.00	 y(3,1,0) = 0.00	 
y(2,3,0) = 0.00	 y(3,2,0) = 1.00	 
y(0,1,1) = 0.00	 y(1,0,1) = 1.00	 
y(0,2,1) = 0.27	 y(2,0,1) = 0.73	 
y(0,3,1) = 0.00	 y(3,0,1) = 1.00	 
y(1,2,1) = 0.70	 y(2,1,1) = 0.30	 
y(1,3,1) = 0.00	 y(3,1,1) = 1.00	 
y(2,3,1) = 0.00	 y(3,2,1) = 1.00	 
y(0,1,2) = 0.79	 y(1,0,2) = 0.21	 
y(0,2,2) = 1.00	 y(2,0,2) = 0.00	 
y(0,3,2) = 1.00	 y(3,0,2) = 0.00	 
y(1,2,2) = 0.44	 y(2,1,2) = 0.56	 
y(1,3,2) = 0.69	 y(3,1,2) = 0.31	 
y(2,3,2) = 0.79	 y(3,2,2) = 0.21	 
y(0,1,3) = 0.09	 y(1,0,3) = 0.91	 
y(0,2,3) = 0.82	 y(2,0,3) = 0.18	 
y(0,3,3) = 0.00	 y(3,0,3) = 1.00	 
y(1,2,3) = 0.39	 y(2,1,3) = 0.61	 
y(1,3,3) = 0.32	 y(3,1,3) = 0.68	 
y(2,3,3) = 0.39	 y(3,2,3) = 0.61	 
obj:  0.9489024732195852
solutions:  1
+ 0.006568144499178979x(1,3) + 0.1023535851122058x(3,3) + 0.01587301587301588x(2,3) 
[(1, 2), (1, 3), (3, 3), (2, 3), (2, 2)]
cliques:  1 mip: 83
C:  32.0
x(0,0) = 1.00	 x(0,1) = 25.00	 x(0,2) = 12.00	 x(0,3) = 11.00	 
x(1,0) = 0.00	 x(1,1) = 11.56	 x(1,2) = 16.56	 x(1,3) = 4.56	 
x(2,0) = 31.00	 x(2,1) = 23.82	 x(2,2) = 19.34	 x(2,3) = 10.34	 
x(3,0) = 11.60	 x(3,1) = 0.00	 x(3,2) = 20.65	 x(3,3) = 7.87	 
y(0,1,0) = 0.00	 y(1,0,0) = 1.00	 
y(0,2,0) = 1.00	 y(2,0,0) = 0.00	 
y(0,3,0) = 0.92	 y(3,0,0) = 0.08	 
y(1,2,0) = 0.89	 y(2,1,0) = 0.11	 
y(1,3,0) = 1.00	 y(3,1,0) = 0.00	 
y(2,3,0) = 0.00	 y(3,2,0) = 1.00	 
y(0,1,1) = 0.00	 y(1,0,1) = 1.00	 
y(0,2,1) = 0.22	 y(2,0,1) = 0.78	 
y(0,3,1) = 0.00	 y(3,0,1) = 1.00	 
y(1,2,1) = 0.80	 y(2,1,1) = 0.20	 
y(1,3,1) = 0.00	 y(3,1,1) = 1.00	 
y(2,3,1) = 0.00	 y(3,2,1) = 1.00	 
y(0,1,2) = 0.69	 y(1,0,2) = 0.31	 
y(0,2,2) = 1.00	 y(2,0,2) = 0.00	 
y(0,3,2) = 1.00	 y(3,0,2) = 0.00	 
y(1,2,2) = 0.53	 y(2,1,2) = 0.47	 
y(1,3,2) = 0.83	 y(3,1,2) = 0.17	 
y(2,3,2) = 0.76	 y(3,2,2) = 0.24	 
y(0,1,3) = 0.03	 y(1,0,3) = 0.97	 
y(0,2,3) = 0.87	 y(2,0,3) = 0.13	 
y(0,3,3) = 0.00	 y(3,0,3) = 1.00	 
y(1,2,3) = 0.62	 y(2,1,3) = 0.38	 
y(1,3,3) = 0.48	 y(3,1,3) = 0.52	 
y(2,3,3) = 0.37	 y(3,2,3) = 0.63	 
obj:  1.0
erro
[(1, 2), (1, 3), (3, 3), (2, 3), (2, 2)]
cliques:  0 mip: 91
C:  32.0
x(0,0) = 1.51	 x(0,1) = 24.38	 x(0,2) = 12.51	 x(0,3) = 11.51	 
x(1,0) = 3.13	 x(1,1) = 11.13	 x(1,2) = 16.13	 x(1,3) = 4.13	 
x(2,0) = 31.00	 x(2,1) = 24.00	 x(2,2) = 21.00	 x(2,3) = 12.00	 
x(3,0) = 12.00	 x(3,1) = 0.00	 x(3,2) = 21.00	 x(3,3) = 8.20	 
y(0,1,0) = 0.11	 y(1,0,0) = 0.89	 
y(0,2,0) = 1.00	 y(2,0,0) = 0.00	 
y(0,3,0) = 0.92	 y(3,0,0) = 0.08	 
y(1,2,0) = 0.86	 y(2,1,0) = 0.14	 
y(1,3,0) = 1.00	 y(3,1,0) = 0.00	 
y(2,3,0) = 0.00	 y(3,2,0) = 1.00	 
y(0,1,1) = 0.00	 y(1,0,1) = 1.00	 
y(0,2,1) = 0.39	 y(2,0,1) = 0.61	 
y(0,3,1) = 0.00	 y(3,0,1) = 1.00	 
y(1,2,1) = 0.98	 y(2,1,1) = 0.02	 
y(1,3,1) = 0.00	 y(3,1,1) = 1.00	 
y(2,3,1) = 0.00	 y(3,2,1) = 1.00	 
y(0,1,2) = 0.69	 y(1,0,2) = 0.31	 
y(0,2,2) = 1.00	 y(2,0,2) = 0.00	 
y(0,3,2) = 1.00	 y(3,0,2) = 0.00	 
y(1,2,2) = 0.70	 y(2,1,2) = 0.30	 
y(1,3,2) = 0.87	 y(3,1,2) = 0.13	 
y(2,3,2) = 0.49	 y(3,2,2) = 0.51	 
y(0,1,3) = 0.00	 y(1,0,3) = 1.00	 
y(0,2,3) = 0.42	 y(2,0,3) = 0.58	 
y(0,3,3) = 0.00	 y(3,0,3) = 1.00	 
y(1,2,3) = 0.61	 y(2,1,3) = 0.39	 
y(1,3,3) = 0.55	 y(3,1,3) = 0.45	 
y(2,3,3) = 0.34	 y(3,2,3) = 0.66	 
obj:  1.0402951780032106
erro
[(3, 2), (1, 3), (3, 3), (2, 3), (2, 2), (0, 3)]
cliques:  0 mip: 95
C:  32.0
x(0,0) = 0.53	 x(0,1) = 25.00	 x(0,2) = 19.00	 x(0,3) = 10.53	 
x(1,0) = 4.69	 x(1,1) = 13.94	 x(1,2) = 18.94	 x(1,3) = 5.69	 
x(2,0) = 31.00	 x(2,1) = 24.00	 x(2,2) = 20.15	 x(2,3) = 11.15	 
x(3,0) = 10.68	 x(3,1) = 0.00	 x(3,2) = 19.68	 x(3,3) = 7.68	 
y(0,1,0) = 0.21	 y(1,0,0) = 0.79	 
y(0,2,0) = 1.00	 y(2,0,0) = 0.00	 
y(0,3,0) = 0.83	 y(3,0,0) = 0.17	 
y(1,2,0) = 0.84	 y(2,1,0) = 0.16	 
y(1,3,0) = 1.00	 y(3,1,0) = 0.00	 
y(2,3,0) = 0.00	 y(3,2,0) = 1.00	 
y(0,1,1) = 0.00	 y(1,0,1) = 1.00	 
y(0,2,1) = 0.30	 y(2,0,1) = 0.70	 
y(0,3,1) = 0.00	 y(3,0,1) = 1.00	 
y(1,2,1) = 0.83	 y(2,1,1) = 0.17	 
y(1,3,1) = 0.00	 y(3,1,1) = 1.00	 
y(2,3,1) = 0.00	 y(3,2,1) = 1.00	 
y(0,1,2) = 0.72	 y(1,0,2) = 0.28	 
y(0,2,2) = 0.83	 y(2,0,2) = 0.17	 
y(0,3,2) = 0.70	 y(3,0,2) = 0.30	 
y(1,2,2) = 0.80	 y(2,1,2) = 0.20	 
y(1,3,2) = 0.71	 y(3,1,2) = 0.29	 
y(2,3,2) = 0.46	 y(3,2,2) = 0.54	 
y(0,1,3) = 0.10	 y(1,0,3) = 0.90	 
y(0,2,3) = 0.99	 y(2,0,3) = 0.01	 
y(0,3,3) = 0.01	 y(3,0,3) = 0.99	 
y(1,2,3) = 0.45	 y(2,1,3) = 0.55	 
y(1,3,3) = 0.36	 y(3,1,3) = 0.64	 
y(2,3,3) = 0.52	 y(3,2,3) = 0.48	 
obj:  0.996434323040702
solutions:  1
+ 0.0067178502879078695x(1,3) + 0.11228406909788867x(3,3) + 0.008637236084452974x(2,3) 
[(3, 2), (1, 3), (3, 3), (2, 3), (2, 2)]
cliques:  1 mip: 94
C:  32.0
x(0,0) = 0.51	 x(0,1) = 25.00	 x(0,2) = 17.31	 x(0,3) = 10.51	 
x(1,0) = 4.95	 x(1,1) = 12.95	 x(1,2) = 17.95	 x(1,3) = 5.95	 
x(2,0) = 31.00	 x(2,1) = 20.94	 x(2,2) = 17.94	 x(2,3) = 8.94	 
x(3,0) = 11.00	 x(3,1) = 0.00	 x(3,2) = 20.14	 x(3,3) = 8.00	 
y(0,1,0) = 0.24	 y(1,0,0) = 0.76	 
y(0,2,0) = 1.00	 y(2,0,0) = 0.00	 
y(0,3,0) = 0.92	 y(3,0,0) = 0.08	 
y(1,2,0) = 0.83	 y(2,1,0) = 0.17	 
y(1,3,0) = 1.00	 y(3,1,0) = 0.00	 
y(2,3,0) = 0.00	 y(3,2,0) = 1.00	 
y(0,1,1) = 0.00	 y(1,0,1) = 1.00	 
y(0,2,1) = 0.11	 y(2,0,1) = 0.89	 
y(0,3,1) = 0.00	 y(3,0,1) = 1.00	 
y(1,2,1) = 0.87	 y(2,1,1) = 0.13	 
y(1,3,1) = -0.00	 y(3,1,1) = 1.00	 
y(2,3,1) = 0.00	 y(3,2,1) = 1.00	 
y(0,1,2) = 0.78	 y(1,0,2) = 0.22	 
y(0,2,2) = 0.81	 y(2,0,2) = 0.19	 
y(0,3,2) = 0.42	 y(3,0,2) = 0.58	 
y(1,2,2) = 0.63	 y(2,1,2) = 0.37	 
y(1,3,2) = 0.77	 y(3,1,2) = 0.23	 
y(2,3,2) = 0.95	 y(3,2,2) = 0.05	 
y(0,1,3) = 0.12	 y(1,0,3) = 0.88	 
y(0,2,3) = 0.92	 y(2,0,3) = 0.08	 
y(0,3,3) = 0.03	 y(3,0,3) = 0.97	 
y(1,2,3) = 0.78	 y(2,1,3) = 0.22	 
y(1,3,3) = 0.50	 y(3,1,3) = 0.50	 
y(2,3,3) = 0.62	 y(3,2,3) = 0.38	 
obj:  0.9051571015053481
solutions:  1
+ 0.013932172318973417x(1,2) + 0.02263978001833181x(3,2) + 0.002199816681943172x(1,3) + 0.0030247479376718546x(3,3) + 0.009349220898258482x(0,2) 
[(1, 2), (3, 2), (1, 3), (3, 3), (2, 3), (2, 2), (0, 2)]
cliques:  1 mip: 93
C:  33.178524272263815
x(0,0) = 0.86	 x(0,1) = 26.18	 x(0,2) = 20.18	 x(0,3) = 19.18	 
x(1,0) = 7.12	 x(1,1) = 18.64	 x(1,2) = 23.64	 x(1,3) = 11.64	 
x(2,0) = 32.18	 x(2,1) = 25.18	 x(2,2) = 22.18	 x(2,3) = 13.18	 
x(3,0) = 10.20	 x(3,1) = 0.00	 x(3,2) = 19.20	 x(3,3) = 7.20	 
y(0,1,0) = 0.30	 y(1,0,0) = 0.70	 
y(0,2,0) = 1.00	 y(2,0,0) = 0.00	 
y(0,3,0) = 0.69	 y(3,0,0) = 0.31	 
y(1,2,0) = 0.63	 y(2,1,0) = 0.37	 
y(1,3,0) = 1.00	 y(3,1,0) = 0.00	 
y(2,3,0) = 0.00	 y(3,2,0) = 1.00	 
y(0,1,1) = 0.13	 y(1,0,1) = 0.87	 
y(0,2,1) = 0.23	 y(2,0,1) = 0.77	 
y(0,3,1) = 0.00	 y(3,0,1) = 1.00	 
y(1,2,1) = 0.90	 y(2,1,1) = 0.10	 
y(1,3,1) = 0.34	 y(3,1,1) = 0.66	 
y(2,3,1) = 0.00	 y(3,2,1) = 1.00	 
y(0,1,2) = 0.64	 y(1,0,2) = 0.36	 
y(0,2,2) = 0.86	 y(2,0,2) = 0.14	 
y(0,3,2) = 0.27	 y(3,0,2) = 0.73	 
y(1,2,2) = 0.40	 y(2,1,2) = 0.60	 
y(1,3,2) = 0.50	 y(3,1,2) = 0.50	 
y(2,3,2) = 0.65	 y(3,2,2) = 0.35	 
y(0,1,3) = 0.50	 y(1,0,3) = 0.50	 
y(0,2,3) = 0.55	 y(2,0,3) = 0.45	 
y(0,3,3) = 0.00	 y(3,0,3) = 1.00	 
y(1,2,3) = 0.33	 y(2,1,3) = 0.67	 
y(1,3,3) = 0.00	 y(3,1,3) = 1.00	 
y(2,3,3) = 0.00	 y(3,2,3) = 1.00	 
obj:  0.9790483560528999
solutions:  1
+ 0.005524861878453032x(1,2) + 0.044198895027624314x(3,2) 
[(1, 2), (3, 2), (1, 3), (2, 3), (2, 2), (0, 3)]
cliques:  1 mip: 128
C:  34.39784946236549
x(0,0) = 0.91	 x(0,1) = 27.40	 x(0,2) = 18.40	 x(0,3) = 17.40	 
x(1,0) = 0.93	 x(1,1) = 11.40	 x(1,2) = 16.40	 x(1,3) = 4.40	 
x(2,0) = 33.40	 x(2,1) = 22.52	 x(2,2) = 19.52	 x(2,3) = 10.52	 
x(3,0) = 15.40	 x(3,1) = 0.00	 x(3,2) = 24.40	 x(3,3) = 12.40	 
y(0,1,0) = 0.04	 y(1,0,0) = 0.96	 
y(0,2,0) = 1.00	 y(2,0,0) = 0.00	 
y(0,3,0) = 0.93	 y(3,0,0) = 0.07	 
y(1,2,0) = 0.76	 y(2,1,0) = 0.24	 
y(1,3,0) = 1.00	 y(3,1,0) = 0.00	 
y(2,3,0) = 0.00	 y(3,2,0) = 1.00	 
y(0,1,1) = 0.00	 y(1,0,1) = 1.00	 
y(0,2,1) = 0.35	 y(2,0,1) = 0.65	 
y(0,3,1) = 0.00	 y(3,0,1) = 1.00	 
y(1,2,1) = 1.00	 y(2,1,1) = 0.00	 
y(1,3,1) = 0.15	 y(3,1,1) = 0.85	 
y(2,3,1) = 0.00	 y(3,2,1) = 1.00	 
y(0,1,2) = 0.38	 y(1,0,2) = 0.62	 
y(0,2,2) = 0.75	 y(2,0,2) = 0.25	 
y(0,3,2) = 1.00	 y(3,0,2) = 0.00	 
y(1,2,2) = 0.56	 y(2,1,2) = 0.44	 
y(1,3,2) = 1.00	 y(3,1,2) = 0.00	 
y(2,3,2) = 1.00	 y(3,2,2) = 0.00	 
y(0,1,3) = 0.20	 y(1,0,3) = 0.80	 
y(0,2,3) = 0.15	 y(2,0,3) = 0.85	 
y(0,3,3) = 0.00	 y(3,0,3) = 1.00	 
y(1,2,3) = 0.58	 y(2,1,3) = 0.42	 
y(1,3,3) = 1.00	 y(3,1,3) = 0.00	 
y(2,3,3) = 0.20	 y(3,2,3) = 0.80	 
obj:  1.1101396844538503
erro
[(1, 2), (0, 1), (1, 3), (2, 1), (2, 3), (2, 2), (0, 2)]
cliques:  0 mip: 0
iterações: 12 cortes cliques encontrados: 8 mip: 1041 objective:  34.39784946236549
Coin0506I Presolve 157 (-171) rows, 90 (-71) columns and 490 (-260) elements
Clp1000I sum of infeasibilities 1.79124e-08 - average 1.14092e-10, 0 fixed columns
Coin0506I Presolve 157 (0) rows, 90 (0) columns and 490 (0) elements
Clp0029I End of values pass after 90 iterations
Clp0000I Optimal - objective value 29
Clp0000I Optimal - objective value 29
Coin0511I After Postsolve, objective 29, infeasibilities - dual 0 (0), primal 0 (0)
Clp0000I Optimal - objective value 29
Clp0000I Optimal - objective value 29
Clp0000I Optimal - objective value 29
Coin0511I After Postsolve, objective 29, infeasibilities - dual 0 (0), primal 0 (0)
Clp0032I Optimal objective 29 - 0 iterations time 0.012, Presolve 0.00, Idiot 0.01
Coin3009W Conflict graph built in 0.000 seconds, density: 0.070%
